************************************************************************
file with basedata            : mm47_.bas
initial value random generator: 1697380457
************************************************************************
projects                      :  1
jobs (incl. supersource/sink ):  12
horizon                       :  81
RESOURCES
  - renewable                 :  2   R
  - nonrenewable              :  2   N
  - doubly constrained        :  0   D
************************************************************************
PROJECT INFORMATION:
pronr.  #jobs rel.date duedate tardcost  MPM-Time
    1     10      0       16        0       16
************************************************************************
PRECEDENCE RELATIONS:
jobnr.    #modes  #successors   successors
   0        1          3           1   2   3
   1        3          2           4   5
   2        3          3           5   6   9
   3        3          2           8  10
   4        3          1           7
   5        3          1          10
   6        3          1          10
   7        3          2           8   9
   8        3          1          11
   9        3          1          11
  10        3          1          11
  11        1          0        
************************************************************************
REQUESTS/DURATIONS:
jobnr. mode duration  R 1  R 2  R 3  R 4  E(W 1)  E(W 2)  E(W 3)
------------------------------------------------------------------------
  0      1     0       0    0    0    0     0       0       0
  1      1     4       6    4    8    7    40      32      28
  2      1     8       9    8    2    5    136      16      40
  3      1     3       7    3    1   10    30       6      30
  4      1     2       5    7    3    1    24       6       4
  5      1     4       6    6    5    8    48      20      32
  6      1     1       5   10    8    9    15       8       9
  7      1     4      10    6    9    5    64      36      20
  8      1     4       8    6    9    9    56      36      36
  9      1     6       7    8    3    3    90      18      18
 10      1     2       5    4    4    2    18       8       4
 11      1     0       0    0    0    0     0       0       0
************************************************************************
RESOURCEAVAILABILITIES:
  R 1  R 2  R 3
   32   47   53
************************************************************************
RESOURCE LIMITS:
jobnr.  l(R 1)  u(R 1)  l(R 2)  u(R 2)  l(R 3)  u(R 3)
------------------------------------------------------------------------
  0        0       0       0       0       0       0
  1        5      10       4       8       4       7
  2        9      17       1       2       3       5
  3        6      10       1       2       5      10
  4        7      12       2       3       1       2
  5        6      12       3       5       4       8
  6        8      15       4       8       5       9
  7        8      16       5       9       3       5
  8        7      14       5       9       5       9
  9        8      15       2       3       2       3
 10        5       9       2       4       1       2
 11        0       0       0       0       0       0
************************************************************************
SCENARIOS:
------------------------------------------------------------------------
RESOURCE k = 1
s = 1: (0, 61, 88, 24, 24, 36, 13, 96, 94, 75, 17, 0)
s = 2: (0, 51, 94, 23, 31, 31, 10, 74, 48, 93, 29, 0)
s = 3: (0, 32, 113, 47, 26, 52, 11, 48, 62, 105, 14, 0)
s = 4: (0, 63, 103, 18, 19, 30, 22, 70, 33, 102, 27, 0)
s = 5: (0, 33, 81, 39, 39, 31, 27, 61, 62, 102, 22, 0)
s = 6: (0, 44, 173, 35, 15, 38, 10, 73, 50, 148, 16, 0)
s = 7: (0, 44, 88, 21, 23, 55, 13, 47, 59, 89, 13, 0)
s = 8: (0, 57, 117, 26, 21, 45, 16, 37, 39, 63, 18, 0)
s = 9: (0, 48, 86, 31, 24, 30, 18, 45, 91, 79, 14, 0)
s = 10: (0, 47, 137, 30, 25, 48, 17, 111, 75, 71, 32, 0)
s = 11: (0, 58, 165, 49, 21, 45, 12, 81, 56, 57, 18, 0)
s = 12: (0, 43, 112, 44, 27, 67, 18, 56, 48, 70, 16, 0)
s = 13: (0, 32, 87, 22, 39, 86, 18, 70, 33, 84, 11, 0)
s = 14: (0, 28, 109, 42, 23, 59, 13, 61, 60, 79, 16, 0)
s = 15: (0, 35, 121, 30, 19, 50, 17, 47, 75, 77, 25, 0)
s = 16: (0, 44, 132, 25, 22, 44, 13, 65, 40, 62, 26, 0)
s = 17: (0, 30, 158, 44, 29, 37, 20, 42, 73, 99, 18, 0)
s = 18: (0, 65, 183, 39, 30, 60, 24, 41, 53, 75, 22, 0)
s = 19: (0, 53, 96, 26, 13, 43, 10, 81, 50, 75, 14, 0)
s = 20: (0, 46, 129, 27, 19, 58, 17, 104, 67, 81, 17, 0)
s = 21: (0, 38, 233, 19, 17, 63, 14, 45, 41, 115, 16, 0)
s = 22: (0, 33, 96, 35, 25, 40, 15, 37, 50, 120, 15, 0)
s = 23: (0, 60, 150, 30, 30, 50, 18, 50, 56, 105, 24, 0)
s = 24: (0, 29, 182, 25, 17, 72, 25, 49, 40, 106, 15, 0)
s = 25: (0, 29, 172, 25, 20, 43, 19, 75, 45, 49, 13, 0)
s = 26: (0, 36, 119, 26, 23, 31, 20, 87, 51, 76, 17, 0)
s = 27: (0, 70, 92, 52, 28, 36, 23, 73, 58, 52, 16, 0)
s = 28: (0, 33, 172, 28, 25, 59, 19, 76, 56, 73, 17, 0)
s = 29: (0, 28, 169, 27, 22, 36, 12, 35, 74, 104, 15, 0)
s = 30: (0, 36, 183, 33, 24, 68, 14, 38, 58, 95, 15, 0)
s = 31: (0, 62, 104, 39, 27, 40, 25, 90, 32, 118, 17, 0)
s = 32: (0, 31, 83, 34, 27, 60, 12, 75, 62, 144, 30, 0)
s = 33: (0, 35, 125, 40, 28, 33, 11, 80, 39, 158, 15, 0)
s = 34: (0, 28, 136, 25, 27, 59, 18, 57, 66, 85, 22, 0)
s = 35: (0, 36, 123, 31, 28, 61, 17, 93, 49, 114, 14, 0)
s = 36: (0, 45, 102, 46, 26, 35, 13, 66, 40, 95, 21, 0)
s = 37: (0, 40, 187, 45, 25, 58, 18, 84, 54, 66, 19, 0)
s = 38: (0, 40, 90, 25, 25, 102, 12, 63, 29, 72, 16, 0)
s = 39: (0, 32, 116, 34, 29, 50, 12, 58, 48, 56, 12, 0)
s = 40: (0, 29, 142, 30, 29, 35, 12, 49, 66, 100, 23, 0)
s = 41: (0, 54, 107, 32, 24, 44, 12, 79, 35, 62, 14, 0)
s = 42: (0, 47, 216, 26, 28, 60, 17, 72, 54, 107, 13, 0)
s = 43: (0, 37, 137, 45, 31, 65, 9, 75, 56, 80, 24, 0)
s = 44: (0, 40, 123, 31, 26, 41, 21, 73, 65, 87, 19, 0)
s = 45: (0, 29, 106, 27, 25, 78, 18, 58, 77, 109, 13, 0)
s = 46: (0, 42, 135, 33, 23, 53, 17, 36, 58, 73, 12, 0)
s = 47: (0, 46, 153, 24, 24, 58, 23, 59, 50, 53, 16, 0)
s = 48: (0, 70, 148, 41, 20, 36, 20, 52, 34, 118, 15, 0)
s = 49: (0, 46, 176, 38, 18, 33, 17, 78, 51, 75, 22, 0)
s = 50: (0, 68, 82, 42, 23, 65, 16, 37, 46, 78, 15, 0)
s = 51: (0, 46, 112, 27, 15, 59, 13, 58, 43, 81, 24, 0)
s = 52: (0, 68, 112, 25, 20, 34, 18, 97, 61, 108, 11, 0)
s = 53: (0, 43, 107, 19, 34, 46, 17, 66, 48, 57, 19, 0)
s = 54: (0, 37, 140, 32, 31, 58, 16, 66, 52, 131, 10, 0)
s = 55: (0, 26, 159, 27, 27, 52, 16, 59, 54, 57, 17, 0)
s = 56: (0, 63, 169, 36, 20, 32, 11, 81, 103, 91, 17, 0)
s = 57: (0, 23, 85, 33, 18, 60, 16, 55, 86, 82, 10, 0)
s = 58: (0, 34, 92, 23, 28, 34, 19, 96, 67, 92, 16, 0)
s = 59: (0, 44, 141, 18, 33, 55, 19, 114, 48, 102, 12, 0)
s = 60: (0, 28, 113, 40, 39, 36, 12, 51, 69, 119, 15, 0)
s = 61: (0, 35, 225, 47, 25, 52, 19, 81, 66, 123, 18, 0)
s = 62: (0, 25, 129, 29, 16, 49, 16, 57, 57, 90, 19, 0)
s = 63: (0, 43, 113, 44, 17, 37, 27, 36, 75, 66, 18, 0)
s = 64: (0, 69, 152, 38, 27, 64, 9, 57, 91, 64, 20, 0)
s = 65: (0, 23, 185, 45, 15, 42, 20, 81, 48, 93, 21, 0)
s = 66: (0, 26, 104, 28, 26, 69, 12, 44, 55, 102, 14, 0)
s = 67: (0, 45, 159, 26, 15, 53, 18, 82, 72, 140, 17, 0)
s = 68: (0, 24, 114, 31, 18, 49, 18, 52, 53, 96, 32, 0)
s = 69: (0, 41, 227, 33, 27, 59, 9, 44, 42, 112, 16, 0)
s = 70: (0, 33, 157, 32, 24, 57, 19, 53, 83, 123, 19, 0)
s = 71: (0, 45, 156, 39, 17, 38, 20, 66, 71, 72, 22, 0)
s = 72: (0, 32, 130, 34, 24, 56, 16, 77, 36, 107, 20, 0)
s = 73: (0, 38, 186, 36, 31, 52, 13, 49, 56, 105, 23, 0)
s = 74: (0, 44, 144, 42, 16, 50, 17, 69, 87, 92, 12, 0)
s = 75: (0, 39, 95, 22, 35, 44, 12, 60, 75, 65, 15, 0)
s = 76: (0, 39, 189, 38, 25, 36, 15, 66, 47, 117, 25, 0)
s = 77: (0, 34, 141, 22, 21, 51, 14, 68, 68, 138, 16, 0)
s = 78: (0, 31, 134, 37, 23, 34, 9, 108, 69, 85, 11, 0)
s = 79: (0, 44, 118, 31, 21, 54, 12, 91, 99, 85, 14, 0)
s = 80: (0, 27, 106, 34, 32, 29, 11, 47, 55, 62, 19, 0)
s = 81: (0, 36, 119, 48, 28, 44, 12, 88, 41, 77, 20, 0)
s = 82: (0, 28, 104, 35, 43, 47, 11, 80, 38, 51, 14, 0)
s = 83: (0, 64, 162, 20, 23, 40, 14, 66, 63, 99, 18, 0)
s = 84: (0, 38, 81, 28, 19, 48, 11, 73, 35, 72, 12, 0)
s = 85: (0, 39, 75, 27, 40, 49, 10, 86, 78, 87, 21, 0)
s = 86: (0, 45, 209, 32, 19, 52, 10, 44, 75, 53, 21, 0)
s = 87: (0, 30, 125, 52, 22, 53, 22, 63, 39, 62, 13, 0)
s = 88: (0, 56, 79, 35, 29, 47, 10, 60, 35, 60, 16, 0)
s = 89: (0, 25, 133, 32, 21, 38, 18, 44, 96, 122, 19, 0)
s = 90: (0, 40, 91, 23, 20, 53, 22, 85, 42, 82, 14, 0)
s = 91: (0, 42, 155, 31, 15, 30, 10, 86, 72, 85, 14, 0)
s = 92: (0, 26, 195, 22, 28, 49, 19, 76, 48, 58, 12, 0)
s = 93: (0, 29, 153, 25, 23, 73, 14, 83, 62, 80, 17, 0)
s = 94: (0, 45, 117, 20, 21, 53, 16, 106, 37, 85, 21, 0)
s = 95: (0, 30, 121, 34, 21, 69, 11, 58, 41, 148, 14, 0)
s = 96: (0, 46, 198, 43, 15, 41, 10, 73, 54, 138, 12, 0)
s = 97: (0, 26, 147, 24, 29, 68, 14, 81, 88, 116, 16, 0)
s = 98: (0, 37, 155, 19, 34, 37, 20, 68, 67, 139, 13, 0)
s = 99: (0, 31, 158, 50, 28, 32, 19, 68, 51, 130, 17, 0)
s = 100: (0, 28, 142, 29, 31, 31, 19, 67, 46, 73, 23, 0)
s = 101: (0, 56, 98, 25, 36, 70, 10, 45, 72, 72, 20, 0)
s = 102: (0, 46, 102, 28, 29, 64, 19, 46, 37, 90, 16, 0)
s = 103: (0, 41, 93, 30, 34, 67, 15, 70, 46, 51, 15, 0)
s = 104: (0, 42, 102, 44, 22, 25, 14, 80, 75, 106, 11, 0)
s = 105: (0, 46, 97, 39, 19, 42, 11, 58, 69, 57, 13, 0)
s = 106: (0, 42, 104, 32, 16, 44, 21, 69, 74, 67, 10, 0)
s = 107: (0, 46, 146, 34, 30, 33, 15, 78, 61, 73, 24, 0)
s = 108: (0, 33, 117, 35, 29, 76, 17, 87, 42, 112, 18, 0)
s = 109: (0, 30, 84, 34, 20, 74, 21, 65, 35, 123, 23, 0)
s = 110: (0, 36, 157, 34, 26, 26, 13, 73, 57, 60, 15, 0)
s = 111: (0, 31, 124, 20, 18, 59, 17, 56, 61, 61, 14, 0)
s = 112: (0, 44, 138, 25, 16, 55, 12, 75, 58, 97, 26, 0)
s = 113: (0, 32, 157, 29, 20, 61, 14, 77, 44, 65, 13, 0)
s = 114: (0, 40, 156, 18, 41, 39, 16, 100, 86, 78, 32, 0)
s = 115: (0, 33, 147, 31, 24, 67, 11, 44, 64, 93, 19, 0)
s = 116: (0, 46, 143, 30, 19, 44, 25, 52, 40, 73, 17, 0)
s = 117: (0, 38, 206, 36, 30, 51, 11, 57, 29, 78, 14, 0)
s = 118: (0, 55, 144, 25, 21, 60, 15, 51, 58, 114, 17, 0)
s = 119: (0, 33, 231, 44, 19, 32, 25, 96, 57, 109, 22, 0)
s = 120: (0, 39, 122, 22, 31, 39, 19, 94, 46, 69, 16, 0)
s = 121: (0, 44, 84, 26, 30, 49, 12, 70, 65, 124, 25, 0)
s = 122: (0, 42, 108, 34, 31, 56, 13, 53, 84, 127, 14, 0)
s = 123: (0, 28, 196, 23, 26, 62, 18, 56, 87, 84, 19, 0)
s = 124: (0, 44, 176, 32, 15, 47, 13, 102, 54, 63, 13, 0)
s = 125: (0, 26, 99, 29, 26, 49, 12, 53, 39, 68, 13, 0)
s = 126: (0, 32, 179, 23, 18, 65, 9, 60, 55, 91, 14, 0)
s = 127: (0, 34, 92, 33, 15, 60, 18, 77, 33, 67, 16, 0)
s = 128: (0, 28, 205, 36, 33, 57, 15, 48, 43, 78, 20, 0)
s = 129: (0, 45, 158, 27, 21, 44, 15, 73, 38, 61, 21, 0)
s = 130: (0, 28, 184, 18, 30, 68, 13, 62, 38, 87, 23, 0)
s = 131: (0, 54, 110, 37, 33, 72, 14, 50, 55, 76, 19, 0)
s = 132: (0, 47, 148, 28, 22, 77, 10, 39, 60, 76, 16, 0)
s = 133: (0, 46, 107, 22, 22, 42, 14, 36, 54, 85, 16, 0)
s = 134: (0, 32, 111, 36, 26, 40, 13, 65, 36, 85, 12, 0)
s = 135: (0, 29, 128, 24, 14, 77, 21, 76, 73, 85, 22, 0)
s = 136: (0, 36, 193, 26, 26, 52, 22, 78, 41, 71, 16, 0)
s = 137: (0, 49, 116, 28, 24, 51, 13, 60, 34, 163, 24, 0)
s = 138: (0, 31, 123, 26, 30, 42, 12, 104, 82, 68, 27, 0)
s = 139: (0, 33, 200, 44, 25, 45, 19, 89, 46, 66, 28, 0)
s = 140: (0, 27, 90, 25, 36, 36, 15, 72, 45, 134, 15, 0)
s = 141: (0, 60, 90, 22, 14, 45, 11, 50, 51, 75, 26, 0)
s = 142: (0, 38, 179, 26, 31, 57, 18, 45, 57, 140, 19, 0)
s = 143: (0, 61, 169, 38, 21, 66, 13, 54, 31, 129, 17, 0)
s = 144: (0, 46, 186, 29, 29, 30, 22, 78, 39, 85, 18, 0)
s = 145: (0, 31, 93, 42, 33, 64, 15, 54, 33, 67, 24, 0)
s = 146: (0, 40, 83, 26, 40, 52, 9, 59, 30, 97, 18, 0)
s = 147: (0, 35, 162, 21, 24, 36, 14, 67, 61, 59, 18, 0)
s = 148: (0, 47, 157, 26, 17, 42, 16, 85, 39, 100, 19, 0)
s = 149: (0, 50, 104, 27, 25, 37, 10, 45, 61, 86, 20, 0)
s = 150: (0, 48, 185, 18, 25, 30, 15, 56, 59, 77, 13, 0)
s = 151: (0, 28, 127, 28, 15, 45, 22, 63, 80, 83, 24, 0)
s = 152: (0, 31, 130, 18, 14, 40, 23, 91, 48, 147, 22, 0)
s = 153: (0, 28, 106, 23, 37, 48, 16, 77, 42, 68, 15, 0)
s = 154: (0, 30, 185, 26, 33, 73, 15, 75, 34, 93, 26, 0)
s = 155: (0, 71, 177, 30, 26, 36, 13, 65, 66, 138, 11, 0)
s = 156: (0, 38, 89, 21, 15, 63, 22, 44, 39, 65, 19, 0)
s = 157: (0, 54, 87, 21, 26, 72, 10, 44, 59, 96, 14, 0)
s = 158: (0, 38, 96, 25, 22, 68, 16, 42, 39, 100, 10, 0)
s = 159: (0, 39, 218, 21, 43, 48, 12, 40, 69, 86, 17, 0)
s = 160: (0, 31, 139, 40, 26, 31, 11, 114, 43, 63, 14, 0)
s = 161: (0, 38, 160, 24, 15, 66, 17, 66, 53, 50, 17, 0)
s = 162: (0, 34, 136, 23, 27, 44, 20, 48, 67, 66, 27, 0)
s = 163: (0, 39, 130, 31, 14, 74, 16, 85, 81, 70, 13, 0)
s = 164: (0, 48, 149, 22, 28, 67, 21, 62, 72, 72, 30, 0)
s = 165: (0, 35, 102, 26, 29, 44, 18, 55, 60, 131, 16, 0)
s = 166: (0, 52, 137, 27, 24, 61, 21, 47, 61, 114, 30, 0)
s = 167: (0, 25, 179, 28, 15, 51, 22, 55, 57, 56, 23, 0)
s = 168: (0, 37, 174, 27, 13, 50, 10, 41, 83, 98, 14, 0)
s = 169: (0, 36, 85, 47, 36, 39, 12, 60, 39, 107, 21, 0)
s = 170: (0, 47, 136, 31, 26, 54, 12, 99, 47, 78, 30, 0)
s = 171: (0, 28, 147, 29, 17, 56, 10, 77, 56, 52, 15, 0)
s = 172: (0, 26, 173, 51, 21, 56, 22, 71, 50, 85, 24, 0)
s = 173: (0, 45, 109, 31, 33, 44, 15, 62, 74, 96, 30, 0)
s = 174: (0, 49, 82, 27, 37, 32, 13, 106, 55, 87, 20, 0)
s = 175: (0, 44, 124, 29, 26, 68, 15, 84, 74, 63, 26, 0)
s = 176: (0, 44, 212, 18, 23, 71, 10, 101, 76, 75, 13, 0)
s = 177: (0, 43, 179, 28, 40, 47, 18, 72, 46, 111, 26, 0)
s = 178: (0, 41, 185, 41, 29, 46, 13, 46, 62, 112, 19, 0)
s = 179: (0, 55, 136, 20, 27, 46, 14, 58, 73, 119, 11, 0)
s = 180: (0, 31, 78, 29, 31, 45, 19, 64, 67, 104, 11, 0)
s = 181: (0, 52, 174, 16, 20, 38, 13, 75, 45, 115, 22, 0)
s = 182: (0, 36, 75, 18, 24, 57, 10, 90, 79, 101, 13, 0)
s = 183: (0, 33, 116, 27, 22, 49, 17, 111, 43, 84, 23, 0)
s = 184: (0, 28, 115, 21, 23, 40, 17, 58, 60, 84, 17, 0)
s = 185: (0, 34, 77, 31, 21, 68, 19, 82, 53, 69, 13, 0)
s = 186: (0, 37, 89, 21, 29, 89, 27, 67, 77, 73, 13, 0)
s = 187: (0, 27, 144, 27, 21, 41, 14, 56, 43, 73, 16, 0)
s = 188: (0, 28, 204, 20, 28, 31, 15, 57, 34, 88, 12, 0)
s = 189: (0, 29, 149, 58, 20, 46, 11, 44, 53, 57, 16, 0)
s = 190: (0, 32, 132, 25, 25, 41, 12, 114, 42, 93, 14, 0)
s = 191: (0, 46, 87, 36, 38, 38, 20, 36, 64, 92, 16, 0)
s = 192: (0, 29, 146, 27, 30, 35, 18, 34, 95, 74, 29, 0)
s = 193: (0, 50, 103, 24, 38, 58, 26, 61, 61, 115, 11, 0)
s = 194: (0, 25, 95, 21, 20, 27, 10, 45, 37, 123, 16, 0)
s = 195: (0, 32, 116, 24, 22, 45, 24, 37, 46, 93, 19, 0)
s = 196: (0, 45, 211, 27, 26, 37, 13, 48, 36, 71, 26, 0)
s = 197: (0, 39, 109, 41, 25, 45, 9, 98, 81, 79, 17, 0)
s = 198: (0, 24, 129, 42, 33, 39, 13, 90, 48, 104, 23, 0)
s = 199: (0, 51, 112, 30, 29, 58, 16, 69, 43, 137, 27, 0)
s = 200: (0, 27, 113, 17, 22, 53, 11, 81, 52, 59, 22, 0)
------------------------------------------------------------------------
RESOURCE k = 2
s = 1: (0, 49, 11, 5, 6, 15, 7, 54, 61, 15, 8, 0)
s = 2: (0, 41, 12, 5, 8, 13, 6, 42, 31, 19, 13, 0)
s = 3: (0, 25, 14, 10, 7, 22, 6, 27, 40, 21, 7, 0)
s = 4: (0, 51, 13, 4, 5, 13, 12, 40, 22, 21, 12, 0)
s = 5: (0, 26, 10, 8, 10, 13, 15, 34, 40, 21, 10, 0)
s = 6: (0, 35, 21, 7, 4, 16, 5, 42, 32, 30, 7, 0)
s = 7: (0, 35, 11, 5, 6, 23, 7, 27, 38, 18, 6, 0)
s = 8: (0, 45, 14, 6, 6, 19, 9, 21, 25, 13, 8, 0)
s = 9: (0, 38, 11, 7, 6, 13, 10, 25, 58, 16, 6, 0)
s = 10: (0, 38, 17, 6, 7, 20, 9, 63, 48, 15, 15, 0)
s = 11: (0, 46, 20, 10, 6, 19, 6, 46, 36, 12, 8, 0)
s = 12: (0, 34, 14, 9, 7, 28, 10, 32, 31, 14, 7, 0)
s = 13: (0, 25, 11, 5, 10, 36, 10, 40, 21, 17, 5, 0)
s = 14: (0, 22, 13, 9, 6, 25, 7, 35, 39, 16, 7, 0)
s = 15: (0, 28, 15, 6, 5, 21, 9, 27, 48, 16, 11, 0)
s = 16: (0, 35, 16, 5, 6, 19, 7, 37, 26, 13, 12, 0)
s = 17: (0, 24, 19, 9, 8, 16, 11, 24, 47, 20, 8, 0)
s = 18: (0, 52, 22, 8, 8, 25, 13, 23, 35, 15, 10, 0)
s = 19: (0, 43, 12, 6, 4, 18, 6, 46, 32, 15, 7, 0)
s = 20: (0, 37, 16, 6, 5, 25, 9, 59, 43, 17, 8, 0)
s = 21: (0, 31, 28, 4, 5, 26, 8, 26, 26, 23, 7, 0)
s = 22: (0, 27, 12, 7, 7, 17, 8, 21, 32, 24, 7, 0)
s = 23: (0, 48, 18, 6, 8, 21, 10, 28, 36, 21, 11, 0)
s = 24: (0, 23, 22, 5, 5, 30, 14, 28, 26, 22, 7, 0)
s = 25: (0, 23, 21, 5, 5, 18, 10, 43, 29, 10, 6, 0)
s = 26: (0, 29, 14, 6, 6, 13, 11, 49, 33, 16, 8, 0)
s = 27: (0, 56, 11, 11, 7, 15, 12, 41, 37, 11, 7, 0)
s = 28: (0, 27, 21, 6, 7, 25, 11, 43, 36, 15, 8, 0)
s = 29: (0, 23, 20, 6, 6, 15, 7, 20, 48, 21, 7, 0)
s = 30: (0, 29, 22, 7, 6, 29, 8, 22, 37, 19, 7, 0)
s = 31: (0, 50, 13, 8, 7, 17, 13, 51, 21, 24, 8, 0)
s = 32: (0, 25, 10, 7, 7, 25, 7, 42, 40, 29, 14, 0)
s = 33: (0, 28, 15, 8, 7, 14, 6, 45, 25, 32, 7, 0)
s = 34: (0, 23, 16, 5, 7, 25, 10, 32, 43, 17, 10, 0)
s = 35: (0, 29, 15, 7, 7, 26, 9, 52, 32, 23, 7, 0)
s = 36: (0, 36, 12, 10, 7, 15, 7, 38, 26, 19, 9, 0)
s = 37: (0, 32, 22, 9, 7, 25, 10, 47, 35, 14, 9, 0)
s = 38: (0, 32, 11, 5, 7, 43, 6, 36, 19, 15, 7, 0)
s = 39: (0, 26, 14, 7, 8, 21, 7, 33, 31, 12, 6, 0)
s = 40: (0, 24, 17, 6, 8, 15, 6, 28, 43, 20, 10, 0)
s = 41: (0, 44, 13, 7, 6, 18, 7, 45, 23, 13, 6, 0)
s = 42: (0, 38, 26, 6, 7, 25, 10, 40, 35, 22, 6, 0)
s = 43: (0, 30, 17, 9, 8, 28, 5, 42, 36, 16, 11, 0)
s = 44: (0, 32, 15, 7, 7, 17, 11, 41, 42, 18, 9, 0)
s = 45: (0, 24, 13, 6, 7, 33, 10, 33, 50, 22, 6, 0)
s = 46: (0, 34, 16, 7, 6, 22, 9, 20, 38, 15, 6, 0)
s = 47: (0, 37, 18, 5, 6, 24, 12, 33, 32, 11, 7, 0)
s = 48: (0, 56, 18, 9, 5, 15, 11, 29, 22, 24, 7, 0)
s = 49: (0, 37, 21, 8, 5, 14, 9, 44, 33, 15, 10, 0)
s = 50: (0, 55, 10, 9, 6, 27, 9, 21, 29, 16, 7, 0)
s = 51: (0, 37, 14, 6, 4, 25, 7, 33, 28, 17, 11, 0)
s = 52: (0, 54, 14, 5, 5, 15, 10, 55, 40, 22, 5, 0)
s = 53: (0, 34, 13, 4, 9, 19, 9, 37, 31, 12, 9, 0)
s = 54: (0, 29, 17, 7, 8, 24, 9, 38, 34, 27, 5, 0)
s = 55: (0, 21, 19, 6, 7, 22, 9, 33, 35, 12, 8, 0)
s = 56: (0, 51, 20, 8, 5, 14, 6, 46, 66, 19, 8, 0)
s = 57: (0, 18, 10, 7, 5, 25, 9, 31, 55, 17, 5, 0)
s = 58: (0, 27, 11, 5, 7, 14, 10, 54, 43, 19, 7, 0)
s = 59: (0, 35, 17, 4, 9, 23, 10, 64, 31, 21, 5, 0)
s = 60: (0, 23, 14, 8, 10, 15, 7, 29, 44, 24, 7, 0)
s = 61: (0, 28, 27, 10, 7, 22, 10, 46, 43, 25, 8, 0)
s = 62: (0, 20, 16, 6, 4, 21, 9, 32, 37, 18, 9, 0)
s = 63: (0, 34, 14, 9, 5, 16, 15, 21, 49, 14, 8, 0)
s = 64: (0, 55, 18, 8, 7, 27, 5, 32, 59, 13, 9, 0)
s = 65: (0, 19, 22, 9, 4, 18, 11, 46, 31, 19, 10, 0)
s = 66: (0, 21, 13, 6, 7, 29, 7, 25, 36, 21, 6, 0)
s = 67: (0, 36, 19, 6, 4, 22, 10, 46, 47, 28, 8, 0)
s = 68: (0, 20, 14, 7, 5, 21, 10, 30, 34, 20, 15, 0)
s = 69: (0, 33, 27, 7, 7, 25, 5, 25, 27, 23, 8, 0)
s = 70: (0, 26, 19, 7, 6, 24, 10, 30, 53, 25, 9, 0)
s = 71: (0, 36, 19, 8, 5, 16, 11, 37, 46, 15, 10, 0)
s = 72: (0, 26, 16, 7, 6, 24, 9, 43, 23, 22, 9, 0)
s = 73: (0, 31, 22, 8, 8, 22, 7, 28, 36, 21, 11, 0)
s = 74: (0, 35, 17, 9, 4, 21, 9, 39, 56, 19, 6, 0)
s = 75: (0, 32, 12, 5, 9, 19, 7, 34, 49, 13, 7, 0)
s = 76: (0, 31, 23, 8, 7, 15, 8, 37, 31, 24, 11, 0)
s = 77: (0, 27, 17, 5, 6, 21, 8, 39, 44, 28, 7, 0)
s = 78: (0, 25, 16, 8, 6, 15, 5, 61, 45, 17, 5, 0)
s = 79: (0, 35, 14, 7, 6, 23, 6, 51, 64, 17, 7, 0)
s = 80: (0, 22, 13, 7, 8, 12, 6, 27, 36, 13, 9, 0)
s = 81: (0, 29, 14, 10, 7, 19, 7, 50, 26, 16, 9, 0)
s = 82: (0, 23, 13, 7, 11, 20, 6, 45, 24, 11, 6, 0)
s = 83: (0, 51, 20, 4, 6, 17, 8, 37, 41, 20, 8, 0)
s = 84: (0, 30, 10, 6, 5, 20, 6, 41, 22, 15, 5, 0)
s = 85: (0, 31, 9, 6, 10, 21, 5, 49, 50, 18, 9, 0)
s = 86: (0, 36, 25, 7, 5, 22, 6, 25, 48, 11, 9, 0)
s = 87: (0, 24, 15, 11, 6, 22, 12, 36, 25, 13, 6, 0)
s = 88: (0, 45, 10, 7, 8, 20, 6, 34, 23, 12, 7, 0)
s = 89: (0, 20, 16, 7, 6, 16, 10, 25, 62, 25, 9, 0)
s = 90: (0, 32, 11, 5, 5, 22, 12, 48, 27, 17, 6, 0)
s = 91: (0, 34, 19, 7, 4, 13, 6, 49, 46, 17, 6, 0)
s = 92: (0, 21, 23, 5, 7, 21, 10, 43, 31, 12, 6, 0)
s = 93: (0, 23, 18, 5, 6, 31, 8, 47, 40, 16, 8, 0)
s = 94: (0, 36, 14, 4, 6, 22, 9, 60, 24, 17, 9, 0)
s = 95: (0, 24, 15, 7, 6, 29, 6, 33, 27, 30, 7, 0)
s = 96: (0, 37, 24, 9, 4, 17, 6, 41, 35, 28, 5, 0)
s = 97: (0, 21, 18, 5, 8, 29, 8, 46, 57, 24, 7, 0)
s = 98: (0, 29, 19, 4, 9, 16, 11, 39, 44, 28, 6, 0)
s = 99: (0, 25, 19, 10, 7, 13, 10, 38, 33, 26, 8, 0)
s = 100: (0, 22, 17, 6, 8, 13, 10, 38, 30, 15, 10, 0)
s = 101: (0, 45, 12, 5, 9, 30, 5, 26, 47, 15, 9, 0)
s = 102: (0, 37, 12, 6, 8, 27, 11, 26, 24, 18, 7, 0)
s = 103: (0, 33, 11, 6, 9, 28, 8, 40, 29, 11, 7, 0)
s = 104: (0, 34, 12, 9, 6, 11, 8, 45, 48, 22, 5, 0)
s = 105: (0, 37, 12, 8, 5, 18, 6, 33, 45, 12, 6, 0)
s = 106: (0, 34, 13, 7, 4, 19, 11, 39, 48, 14, 5, 0)
s = 107: (0, 37, 18, 7, 8, 14, 8, 44, 39, 15, 11, 0)
s = 108: (0, 26, 14, 7, 8, 32, 9, 49, 27, 23, 8, 0)
s = 109: (0, 24, 10, 7, 5, 31, 11, 37, 22, 25, 10, 0)
s = 110: (0, 29, 19, 7, 7, 11, 7, 41, 37, 12, 7, 0)
s = 111: (0, 25, 15, 4, 5, 25, 9, 32, 39, 13, 6, 0)
s = 112: (0, 36, 17, 5, 4, 23, 7, 42, 37, 20, 12, 0)
s = 113: (0, 25, 19, 6, 5, 26, 8, 43, 28, 13, 6, 0)
s = 114: (0, 32, 19, 4, 11, 16, 9, 57, 56, 16, 15, 0)
s = 115: (0, 26, 18, 7, 6, 28, 6, 25, 42, 19, 9, 0)
s = 116: (0, 37, 17, 6, 5, 19, 14, 30, 26, 15, 8, 0)
s = 117: (0, 31, 25, 8, 8, 22, 6, 32, 19, 16, 7, 0)
s = 118: (0, 44, 17, 5, 6, 25, 8, 29, 37, 23, 8, 0)
s = 119: (0, 27, 28, 9, 5, 14, 13, 54, 37, 22, 10, 0)
s = 120: (0, 32, 15, 5, 8, 16, 10, 53, 30, 14, 8, 0)
s = 121: (0, 36, 10, 6, 8, 21, 6, 40, 42, 25, 11, 0)
s = 122: (0, 34, 13, 7, 8, 24, 7, 30, 54, 26, 6, 0)
s = 123: (0, 22, 24, 5, 7, 26, 10, 31, 56, 17, 9, 0)
s = 124: (0, 36, 21, 7, 4, 20, 7, 57, 35, 13, 6, 0)
s = 125: (0, 21, 12, 6, 7, 21, 7, 30, 25, 14, 6, 0)
s = 126: (0, 25, 22, 5, 5, 27, 5, 34, 36, 19, 7, 0)
s = 127: (0, 28, 11, 7, 4, 25, 10, 44, 22, 14, 7, 0)
s = 128: (0, 22, 25, 8, 9, 24, 8, 27, 28, 16, 9, 0)
s = 129: (0, 36, 19, 6, 6, 19, 8, 41, 25, 13, 10, 0)
s = 130: (0, 23, 22, 4, 8, 28, 7, 35, 25, 18, 11, 0)
s = 131: (0, 44, 13, 8, 9, 30, 8, 28, 36, 16, 9, 0)
s = 132: (0, 38, 18, 6, 6, 32, 5, 22, 38, 16, 8, 0)
s = 133: (0, 37, 13, 5, 6, 18, 7, 20, 35, 17, 7, 0)
s = 134: (0, 26, 13, 8, 7, 17, 7, 37, 23, 17, 6, 0)
s = 135: (0, 23, 15, 5, 4, 33, 12, 43, 47, 17, 10, 0)
s = 136: (0, 29, 23, 6, 7, 22, 12, 44, 27, 15, 7, 0)
s = 137: (0, 39, 14, 6, 6, 21, 7, 34, 22, 33, 11, 0)
s = 138: (0, 25, 15, 6, 8, 18, 7, 59, 53, 14, 12, 0)
s = 139: (0, 26, 24, 9, 7, 19, 10, 50, 30, 14, 13, 0)
s = 140: (0, 22, 11, 5, 9, 15, 8, 41, 29, 27, 7, 0)
s = 141: (0, 48, 11, 5, 4, 19, 6, 28, 33, 15, 12, 0)
s = 142: (0, 31, 21, 6, 8, 24, 10, 25, 37, 28, 9, 0)
s = 143: (0, 49, 20, 8, 6, 28, 7, 31, 20, 26, 8, 0)
s = 144: (0, 37, 22, 6, 8, 13, 12, 44, 25, 17, 8, 0)
s = 145: (0, 25, 11, 9, 9, 27, 8, 31, 21, 14, 11, 0)
s = 146: (0, 32, 10, 6, 10, 22, 5, 34, 19, 20, 8, 0)
s = 147: (0, 28, 20, 5, 6, 15, 8, 38, 39, 12, 8, 0)
s = 148: (0, 37, 19, 6, 5, 18, 9, 48, 25, 20, 9, 0)
s = 149: (0, 40, 13, 6, 7, 16, 5, 25, 40, 18, 9, 0)
s = 150: (0, 38, 22, 4, 7, 13, 8, 32, 38, 16, 6, 0)
s = 151: (0, 22, 15, 6, 4, 19, 12, 36, 51, 17, 11, 0)
s = 152: (0, 25, 16, 4, 4, 17, 13, 51, 31, 30, 10, 0)
s = 153: (0, 22, 13, 5, 10, 20, 9, 44, 27, 14, 7, 0)
s = 154: (0, 24, 22, 6, 9, 31, 8, 42, 22, 19, 12, 0)
s = 155: (0, 57, 21, 6, 7, 15, 7, 37, 43, 28, 5, 0)
s = 156: (0, 31, 11, 5, 4, 27, 12, 25, 25, 13, 9, 0)
s = 157: (0, 44, 11, 5, 7, 30, 6, 25, 38, 20, 6, 0)
s = 158: (0, 31, 12, 5, 6, 28, 9, 24, 26, 20, 5, 0)
s = 159: (0, 31, 26, 5, 11, 20, 7, 23, 44, 18, 8, 0)
s = 160: (0, 25, 17, 8, 7, 13, 6, 64, 28, 13, 6, 0)
s = 161: (0, 31, 19, 5, 4, 28, 9, 38, 34, 10, 8, 0)
s = 162: (0, 27, 16, 5, 7, 19, 11, 27, 43, 14, 12, 0)
s = 163: (0, 31, 16, 7, 4, 31, 9, 48, 52, 14, 6, 0)
s = 164: (0, 38, 18, 5, 7, 28, 11, 35, 46, 15, 14, 0)
s = 165: (0, 28, 12, 6, 8, 19, 10, 31, 39, 27, 7, 0)
s = 166: (0, 41, 17, 6, 6, 26, 11, 27, 39, 23, 14, 0)
s = 167: (0, 20, 21, 6, 4, 22, 12, 31, 37, 12, 10, 0)
s = 168: (0, 30, 21, 6, 4, 21, 5, 23, 54, 20, 6, 0)
s = 169: (0, 29, 10, 10, 9, 16, 7, 34, 26, 22, 10, 0)
s = 170: (0, 37, 16, 7, 7, 23, 6, 56, 31, 16, 14, 0)
s = 171: (0, 22, 18, 6, 5, 24, 6, 44, 36, 11, 7, 0)
s = 172: (0, 21, 21, 11, 6, 24, 12, 40, 33, 17, 11, 0)
s = 173: (0, 36, 13, 7, 9, 19, 8, 35, 48, 20, 13, 0)
s = 174: (0, 39, 10, 6, 10, 14, 7, 60, 36, 18, 9, 0)
s = 175: (0, 35, 15, 6, 7, 29, 8, 48, 48, 13, 12, 0)
s = 176: (0, 35, 25, 4, 6, 30, 5, 57, 49, 15, 6, 0)
s = 177: (0, 34, 21, 6, 10, 20, 10, 41, 30, 23, 12, 0)
s = 178: (0, 33, 22, 9, 8, 19, 7, 26, 40, 23, 9, 0)
s = 179: (0, 44, 16, 4, 7, 20, 8, 33, 47, 24, 5, 0)
s = 180: (0, 25, 10, 6, 8, 19, 11, 36, 43, 21, 5, 0)
s = 181: (0, 42, 21, 4, 5, 16, 7, 42, 29, 23, 10, 0)
s = 182: (0, 29, 9, 4, 6, 24, 5, 51, 51, 21, 6, 0)
s = 183: (0, 27, 14, 6, 6, 21, 10, 63, 28, 17, 11, 0)
s = 184: (0, 23, 14, 5, 6, 17, 9, 33, 39, 17, 8, 0)
s = 185: (0, 28, 10, 7, 6, 29, 10, 47, 34, 14, 6, 0)
s = 186: (0, 30, 11, 5, 8, 37, 15, 38, 50, 15, 6, 0)
s = 187: (0, 21, 17, 6, 6, 17, 8, 32, 28, 15, 8, 0)
s = 188: (0, 22, 24, 4, 7, 13, 8, 32, 22, 18, 6, 0)
s = 189: (0, 23, 18, 12, 5, 19, 6, 25, 34, 12, 8, 0)
s = 190: (0, 26, 16, 5, 7, 17, 7, 64, 27, 19, 6, 0)
s = 191: (0, 37, 11, 8, 10, 16, 11, 20, 41, 19, 8, 0)
s = 192: (0, 23, 18, 6, 8, 15, 10, 19, 61, 15, 13, 0)
s = 193: (0, 40, 13, 5, 10, 24, 14, 35, 40, 23, 5, 0)
s = 194: (0, 20, 12, 5, 5, 11, 5, 25, 24, 25, 7, 0)
s = 195: (0, 26, 14, 5, 6, 19, 13, 21, 30, 19, 9, 0)
s = 196: (0, 36, 25, 6, 7, 16, 7, 27, 23, 15, 12, 0)
s = 197: (0, 31, 13, 9, 7, 19, 5, 55, 52, 16, 8, 0)
s = 198: (0, 19, 16, 9, 9, 17, 7, 51, 31, 21, 10, 0)
s = 199: (0, 41, 14, 6, 8, 25, 9, 39, 28, 28, 12, 0)
s = 200: (0, 21, 14, 4, 6, 22, 6, 46, 34, 12, 10, 0)
------------------------------------------------------------------------
RESOURCE k = 3
s = 1: (0, 43, 26, 24, 4, 24, 8, 30, 61, 15, 4, 0)
s = 2: (0, 36, 28, 23, 6, 21, 6, 24, 31, 19, 7, 0)
s = 3: (0, 22, 33, 47, 5, 35, 7, 15, 40, 21, 4, 0)
s = 4: (0, 44, 31, 18, 4, 20, 13, 22, 22, 21, 6, 0)
s = 5: (0, 23, 24, 39, 7, 21, 17, 19, 40, 21, 5, 0)
s = 6: (0, 31, 51, 35, 3, 26, 6, 23, 32, 30, 4, 0)
s = 7: (0, 31, 26, 21, 4, 37, 8, 15, 38, 18, 3, 0)
s = 8: (0, 40, 35, 26, 4, 30, 10, 12, 25, 13, 4, 0)
s = 9: (0, 34, 26, 31, 4, 20, 11, 14, 58, 16, 3, 0)
s = 10: (0, 33, 41, 30, 5, 32, 10, 35, 48, 15, 8, 0)
s = 11: (0, 40, 49, 49, 4, 30, 7, 26, 36, 12, 4, 0)
s = 12: (0, 30, 33, 44, 5, 45, 11, 18, 31, 14, 4, 0)
s = 13: (0, 22, 26, 22, 7, 58, 11, 22, 21, 17, 3, 0)
s = 14: (0, 19, 33, 42, 4, 39, 8, 20, 39, 16, 4, 0)
s = 15: (0, 25, 36, 30, 4, 33, 10, 15, 48, 16, 6, 0)
s = 16: (0, 31, 39, 25, 4, 29, 8, 21, 26, 13, 6, 0)
s = 17: (0, 21, 47, 44, 5, 25, 12, 14, 47, 20, 4, 0)
s = 18: (0, 45, 54, 39, 5, 40, 14, 13, 35, 15, 5, 0)
s = 19: (0, 37, 28, 26, 3, 29, 6, 26, 32, 15, 4, 0)
s = 20: (0, 33, 38, 27, 4, 39, 10, 33, 43, 17, 4, 0)
s = 21: (0, 27, 69, 19, 3, 42, 9, 14, 26, 23, 4, 0)
s = 22: (0, 24, 29, 35, 5, 27, 9, 12, 32, 24, 4, 0)
s = 23: (0, 42, 44, 30, 5, 33, 11, 16, 36, 21, 6, 0)
s = 24: (0, 20, 54, 25, 3, 48, 15, 16, 26, 22, 4, 0)
s = 25: (0, 20, 51, 25, 4, 29, 12, 24, 29, 10, 3, 0)
s = 26: (0, 25, 35, 26, 4, 21, 12, 27, 33, 16, 4, 0)
s = 27: (0, 49, 27, 52, 5, 24, 14, 23, 37, 11, 4, 0)
s = 28: (0, 24, 51, 28, 5, 40, 12, 24, 36, 15, 4, 0)
s = 29: (0, 20, 50, 27, 4, 24, 8, 11, 48, 21, 4, 0)
s = 30: (0, 26, 54, 33, 4, 45, 9, 12, 37, 19, 4, 0)
s = 31: (0, 43, 31, 39, 5, 27, 15, 28, 21, 24, 4, 0)
s = 32: (0, 22, 25, 34, 5, 40, 7, 24, 40, 29, 7, 0)
s = 33: (0, 25, 37, 40, 5, 22, 7, 25, 25, 32, 4, 0)
s = 34: (0, 20, 40, 25, 5, 39, 11, 18, 43, 17, 5, 0)
s = 35: (0, 26, 37, 31, 5, 41, 10, 29, 32, 23, 4, 0)
s = 36: (0, 32, 30, 46, 5, 23, 8, 21, 26, 19, 5, 0)
s = 37: (0, 28, 55, 45, 5, 39, 11, 27, 35, 14, 5, 0)
s = 38: (0, 28, 27, 25, 5, 68, 7, 20, 19, 15, 4, 0)
s = 39: (0, 22, 34, 34, 5, 34, 8, 18, 31, 12, 3, 0)
s = 40: (0, 21, 42, 30, 5, 23, 7, 16, 43, 20, 5, 0)
s = 41: (0, 38, 32, 32, 4, 29, 7, 25, 23, 13, 3, 0)
s = 42: (0, 33, 64, 26, 5, 40, 11, 23, 35, 22, 3, 0)
s = 43: (0, 26, 41, 45, 6, 44, 5, 24, 36, 16, 6, 0)
s = 44: (0, 28, 37, 31, 5, 27, 13, 23, 42, 18, 5, 0)
s = 45: (0, 21, 32, 27, 5, 52, 11, 18, 50, 22, 3, 0)
s = 46: (0, 30, 40, 33, 4, 35, 10, 12, 38, 15, 3, 0)
s = 47: (0, 32, 45, 24, 4, 39, 14, 19, 32, 11, 4, 0)
s = 48: (0, 49, 44, 41, 4, 24, 12, 17, 22, 24, 4, 0)
s = 49: (0, 32, 52, 38, 3, 22, 11, 25, 33, 15, 5, 0)
s = 50: (0, 48, 25, 42, 4, 44, 10, 12, 29, 16, 4, 0)
s = 51: (0, 32, 33, 27, 3, 39, 8, 18, 28, 17, 6, 0)
s = 52: (0, 47, 33, 25, 4, 23, 11, 31, 40, 22, 3, 0)
s = 53: (0, 30, 32, 19, 6, 31, 10, 21, 31, 12, 5, 0)
s = 54: (0, 26, 42, 32, 6, 39, 10, 21, 34, 27, 3, 0)
s = 55: (0, 19, 47, 27, 5, 35, 10, 19, 35, 12, 4, 0)
s = 56: (0, 44, 50, 36, 4, 22, 7, 26, 66, 19, 4, 0)
s = 57: (0, 16, 25, 33, 3, 40, 10, 17, 55, 17, 3, 0)
s = 58: (0, 24, 27, 23, 5, 23, 12, 30, 43, 19, 4, 0)
s = 59: (0, 31, 42, 18, 6, 37, 12, 36, 31, 21, 3, 0)
s = 60: (0, 20, 33, 40, 7, 24, 7, 16, 44, 24, 4, 0)
s = 61: (0, 25, 66, 47, 5, 35, 12, 26, 43, 25, 4, 0)
s = 62: (0, 18, 38, 29, 3, 33, 10, 18, 37, 18, 5, 0)
s = 63: (0, 30, 34, 44, 3, 25, 17, 12, 49, 14, 4, 0)
s = 64: (0, 48, 45, 38, 5, 43, 5, 18, 59, 13, 5, 0)
s = 65: (0, 16, 55, 45, 3, 28, 12, 26, 31, 19, 5, 0)
s = 66: (0, 19, 31, 28, 5, 46, 8, 14, 36, 21, 3, 0)
s = 67: (0, 31, 47, 26, 3, 36, 11, 26, 47, 28, 4, 0)
s = 68: (0, 17, 34, 31, 3, 33, 11, 17, 34, 20, 8, 0)
s = 69: (0, 29, 67, 33, 5, 40, 5, 14, 27, 23, 4, 0)
s = 70: (0, 23, 46, 32, 4, 38, 11, 17, 53, 25, 5, 0)
s = 71: (0, 32, 46, 39, 3, 25, 12, 21, 46, 15, 5, 0)
s = 72: (0, 23, 39, 34, 4, 38, 10, 24, 23, 22, 5, 0)
s = 73: (0, 27, 55, 36, 6, 35, 8, 16, 36, 21, 6, 0)
s = 74: (0, 31, 43, 42, 3, 33, 10, 22, 56, 19, 3, 0)
s = 75: (0, 28, 28, 22, 6, 30, 8, 19, 49, 13, 4, 0)
s = 76: (0, 27, 56, 38, 5, 24, 9, 21, 31, 24, 6, 0)
s = 77: (0, 24, 42, 22, 4, 34, 9, 22, 44, 28, 4, 0)
s = 78: (0, 22, 40, 37, 4, 23, 5, 34, 45, 17, 3, 0)
s = 79: (0, 31, 35, 31, 4, 36, 7, 29, 64, 17, 4, 0)
s = 80: (0, 19, 32, 34, 6, 19, 7, 15, 36, 13, 5, 0)
s = 81: (0, 25, 35, 48, 5, 30, 7, 28, 26, 16, 5, 0)
s = 82: (0, 20, 31, 35, 8, 31, 7, 25, 24, 11, 3, 0)
s = 83: (0, 45, 48, 20, 4, 27, 8, 21, 41, 20, 4, 0)
s = 84: (0, 26, 24, 28, 4, 32, 7, 23, 22, 15, 3, 0)
s = 85: (0, 27, 22, 27, 7, 33, 6, 27, 50, 18, 5, 0)
s = 86: (0, 32, 62, 32, 4, 35, 6, 14, 48, 11, 5, 0)
s = 87: (0, 21, 37, 52, 4, 35, 13, 20, 25, 13, 3, 0)
s = 88: (0, 39, 24, 35, 5, 32, 6, 19, 23, 12, 4, 0)
s = 89: (0, 18, 40, 32, 4, 25, 11, 14, 62, 25, 5, 0)
s = 90: (0, 28, 27, 23, 4, 35, 13, 27, 27, 17, 3, 0)
s = 91: (0, 30, 46, 31, 3, 20, 6, 27, 46, 17, 3, 0)
s = 92: (0, 18, 58, 22, 5, 33, 12, 24, 31, 12, 3, 0)
s = 93: (0, 20, 45, 25, 4, 49, 9, 26, 40, 16, 4, 0)
s = 94: (0, 32, 35, 20, 4, 35, 10, 34, 24, 17, 5, 0)
s = 95: (0, 21, 36, 34, 4, 46, 7, 19, 27, 30, 4, 0)
s = 96: (0, 33, 58, 43, 3, 27, 6, 23, 35, 28, 3, 0)
s = 97: (0, 19, 43, 24, 5, 45, 9, 26, 57, 24, 4, 0)
s = 98: (0, 26, 46, 19, 6, 25, 12, 22, 44, 28, 3, 0)
s = 99: (0, 22, 47, 50, 5, 21, 11, 21, 33, 26, 4, 0)
s = 100: (0, 19, 42, 29, 6, 21, 11, 21, 30, 15, 5, 0)
s = 101: (0, 39, 29, 25, 6, 47, 6, 15, 47, 15, 5, 0)
s = 102: (0, 32, 30, 28, 5, 43, 12, 15, 24, 18, 4, 0)
s = 103: (0, 29, 28, 30, 6, 45, 9, 22, 29, 11, 4, 0)
s = 104: (0, 30, 30, 44, 4, 17, 9, 25, 48, 22, 3, 0)
s = 105: (0, 32, 29, 39, 4, 28, 7, 18, 45, 12, 3, 0)
s = 106: (0, 30, 31, 32, 3, 30, 13, 22, 48, 14, 3, 0)
s = 107: (0, 32, 43, 34, 5, 22, 9, 25, 39, 15, 6, 0)
s = 108: (0, 23, 35, 35, 5, 51, 10, 28, 27, 23, 4, 0)
s = 109: (0, 21, 25, 34, 4, 49, 13, 21, 22, 25, 5, 0)
s = 110: (0, 25, 46, 34, 5, 18, 8, 23, 37, 12, 4, 0)
s = 111: (0, 22, 37, 20, 3, 39, 10, 18, 39, 13, 3, 0)
s = 112: (0, 31, 41, 25, 3, 37, 7, 24, 37, 20, 6, 0)
s = 113: (0, 22, 46, 29, 4, 41, 9, 24, 28, 13, 3, 0)
s = 114: (0, 28, 46, 18, 7, 26, 10, 32, 56, 16, 8, 0)
s = 115: (0, 23, 44, 31, 4, 45, 7, 14, 42, 19, 5, 0)
s = 116: (0, 33, 42, 30, 4, 29, 15, 17, 26, 15, 4, 0)
s = 117: (0, 27, 61, 36, 5, 34, 7, 18, 19, 16, 4, 0)
s = 118: (0, 38, 43, 25, 4, 40, 9, 16, 37, 23, 4, 0)
s = 119: (0, 23, 68, 44, 4, 22, 15, 30, 37, 22, 5, 0)
s = 120: (0, 28, 36, 22, 6, 26, 12, 30, 30, 14, 4, 0)
s = 121: (0, 31, 25, 26, 5, 33, 7, 22, 42, 25, 6, 0)
s = 122: (0, 29, 32, 34, 6, 37, 8, 17, 54, 26, 3, 0)
s = 123: (0, 19, 58, 23, 5, 42, 11, 18, 56, 17, 5, 0)
s = 124: (0, 31, 52, 32, 3, 32, 8, 32, 35, 13, 3, 0)
s = 125: (0, 18, 29, 29, 5, 33, 7, 17, 25, 14, 3, 0)
s = 126: (0, 22, 53, 23, 3, 44, 6, 19, 36, 19, 4, 0)
s = 127: (0, 24, 27, 33, 3, 40, 11, 24, 22, 14, 4, 0)
s = 128: (0, 20, 61, 36, 6, 38, 9, 15, 28, 16, 5, 0)
s = 129: (0, 31, 47, 27, 4, 30, 9, 23, 25, 13, 5, 0)
s = 130: (0, 20, 54, 18, 5, 45, 8, 20, 25, 18, 6, 0)
s = 131: (0, 38, 33, 37, 6, 48, 8, 16, 36, 16, 5, 0)
s = 132: (0, 33, 44, 28, 4, 51, 6, 13, 38, 16, 4, 0)
s = 133: (0, 33, 32, 22, 4, 28, 8, 11, 35, 17, 4, 0)
s = 134: (0, 23, 33, 36, 5, 27, 8, 21, 23, 17, 3, 0)
s = 135: (0, 20, 38, 24, 3, 52, 13, 24, 47, 17, 5, 0)
s = 136: (0, 25, 57, 26, 5, 35, 13, 25, 27, 15, 4, 0)
s = 137: (0, 34, 34, 28, 4, 34, 8, 19, 22, 33, 6, 0)
s = 138: (0, 22, 37, 26, 5, 28, 8, 33, 53, 14, 6, 0)
s = 139: (0, 23, 59, 44, 5, 30, 12, 28, 30, 14, 7, 0)
s = 140: (0, 19, 27, 25, 6, 24, 9, 23, 29, 27, 4, 0)
s = 141: (0, 42, 27, 22, 3, 30, 7, 16, 33, 15, 6, 0)
s = 142: (0, 27, 53, 26, 6, 38, 11, 14, 37, 28, 5, 0)
s = 143: (0, 43, 50, 38, 4, 44, 8, 17, 20, 26, 4, 0)
s = 144: (0, 32, 55, 29, 5, 20, 13, 25, 25, 17, 4, 0)
s = 145: (0, 22, 28, 42, 6, 43, 9, 17, 21, 14, 6, 0)
s = 146: (0, 28, 25, 26, 7, 35, 6, 19, 19, 20, 4, 0)
s = 147: (0, 25, 48, 21, 4, 24, 9, 21, 39, 12, 4, 0)
s = 148: (0, 33, 47, 26, 3, 28, 10, 27, 25, 20, 5, 0)
s = 149: (0, 35, 31, 27, 5, 25, 6, 14, 40, 18, 5, 0)
s = 150: (0, 34, 55, 18, 5, 20, 9, 18, 38, 16, 3, 0)
s = 151: (0, 20, 38, 28, 3, 30, 14, 20, 51, 17, 6, 0)
s = 152: (0, 22, 39, 18, 3, 27, 14, 29, 31, 30, 5, 0)
s = 153: (0, 20, 31, 23, 7, 32, 10, 24, 27, 14, 4, 0)
s = 154: (0, 21, 55, 26, 6, 49, 9, 24, 22, 19, 6, 0)
s = 155: (0, 50, 52, 30, 5, 24, 8, 21, 43, 28, 3, 0)
s = 156: (0, 27, 26, 21, 3, 42, 14, 14, 25, 13, 5, 0)
s = 157: (0, 38, 26, 21, 5, 48, 6, 14, 38, 20, 3, 0)
s = 158: (0, 27, 28, 25, 4, 45, 10, 13, 26, 20, 3, 0)
s = 159: (0, 27, 64, 21, 8, 32, 7, 13, 44, 18, 4, 0)
s = 160: (0, 22, 41, 40, 5, 21, 7, 36, 28, 13, 3, 0)
s = 161: (0, 27, 47, 24, 3, 44, 10, 21, 34, 10, 4, 0)
s = 162: (0, 24, 40, 23, 5, 30, 12, 15, 43, 14, 6, 0)
s = 163: (0, 27, 39, 31, 3, 50, 10, 27, 52, 14, 3, 0)
s = 164: (0, 34, 44, 22, 5, 45, 13, 20, 46, 15, 7, 0)
s = 165: (0, 25, 30, 26, 5, 29, 11, 18, 39, 27, 4, 0)
s = 166: (0, 36, 41, 27, 4, 41, 13, 15, 39, 23, 7, 0)
s = 167: (0, 18, 53, 28, 3, 34, 13, 18, 37, 12, 5, 0)
s = 168: (0, 26, 52, 27, 3, 33, 6, 13, 54, 20, 3, 0)
s = 169: (0, 26, 25, 47, 6, 26, 8, 19, 26, 22, 5, 0)
s = 170: (0, 33, 40, 31, 5, 36, 7, 31, 31, 16, 7, 0)
s = 171: (0, 19, 44, 29, 3, 37, 6, 24, 36, 11, 4, 0)
s = 172: (0, 18, 51, 51, 4, 37, 13, 22, 33, 17, 6, 0)
s = 173: (0, 32, 32, 31, 6, 30, 9, 20, 48, 20, 7, 0)
s = 174: (0, 34, 25, 27, 7, 21, 8, 34, 36, 18, 5, 0)
s = 175: (0, 31, 37, 29, 5, 46, 9, 27, 48, 13, 6, 0)
s = 176: (0, 31, 63, 18, 4, 48, 6, 32, 49, 15, 3, 0)
s = 177: (0, 30, 53, 28, 7, 31, 11, 23, 30, 23, 6, 0)
s = 178: (0, 29, 55, 41, 5, 31, 8, 15, 40, 23, 5, 0)
s = 179: (0, 38, 40, 20, 5, 31, 9, 18, 47, 24, 3, 0)
s = 180: (0, 22, 23, 29, 6, 30, 12, 20, 43, 21, 3, 0)
s = 181: (0, 37, 51, 16, 4, 26, 8, 24, 29, 23, 5, 0)
s = 182: (0, 25, 22, 18, 4, 38, 6, 28, 51, 21, 3, 0)
s = 183: (0, 24, 35, 27, 4, 33, 11, 35, 28, 17, 6, 0)
s = 184: (0, 20, 34, 21, 4, 27, 10, 19, 39, 17, 4, 0)
s = 185: (0, 24, 23, 31, 4, 46, 11, 26, 34, 14, 3, 0)
s = 186: (0, 26, 26, 21, 5, 59, 17, 21, 50, 15, 3, 0)
s = 187: (0, 19, 43, 27, 4, 27, 8, 18, 28, 15, 4, 0)
s = 188: (0, 19, 60, 20, 5, 21, 9, 18, 22, 18, 3, 0)
s = 189: (0, 20, 44, 58, 4, 31, 7, 14, 34, 12, 4, 0)
s = 190: (0, 23, 39, 25, 5, 27, 7, 36, 27, 19, 3, 0)
s = 191: (0, 32, 26, 36, 7, 26, 12, 12, 41, 19, 4, 0)
s = 192: (0, 21, 43, 27, 5, 24, 11, 11, 61, 15, 7, 0)
s = 193: (0, 35, 31, 24, 7, 39, 16, 20, 40, 23, 3, 0)
s = 194: (0, 17, 28, 21, 4, 18, 6, 14, 24, 25, 4, 0)
s = 195: (0, 23, 35, 24, 4, 30, 14, 12, 30, 19, 5, 0)
s = 196: (0, 32, 62, 27, 5, 25, 8, 15, 23, 15, 6, 0)
s = 197: (0, 27, 32, 41, 5, 30, 6, 31, 52, 16, 4, 0)
s = 198: (0, 17, 38, 42, 6, 26, 8, 29, 31, 21, 5, 0)
s = 199: (0, 36, 33, 30, 5, 39, 10, 22, 28, 28, 6, 0)
s = 200: (0, 19, 34, 17, 4, 35, 7, 26, 34, 12, 5, 0)
************************************************************************
ES/LS-VALUES:
jobnr.   ES(i)    LS(i)
------------------------------------------------------------------------
  0        0        0
  1        0       50
  2        0       54
  3        0       67
  4        7       58
  5       14       68
  6       14       75
  7       11       62
  8       18       73
  9       18       70
 10       22       77
 11       29       81
************************************************************************
BIG-M-VALUES:
M1 = 77, M2 = 353
************************************************************************
